c File: data_files/evolved_graphs/g7271.col
c
c Auto generated graph
c
p edge 100 16
e 1 62
e 2 45
e 4 53
e 4 64
e 5 50
e 7 56
e 11 58
e 12 27
e 14 43
e 15 34
e 16 25
e 21 33
e 22 52
e 24 26
e 30 54
e 38 40
